50, 125053
5004, 32
5001, 32
5002, 2
5003, 42
5002, 15
5001, 26
5003, 20
5003, 18
5004, 34
5004, 27
5002, 33
5001, 1
5003, 17
5003, 12
5000, 16
5004, 23
5001, 37
5002, 35
5000, 47
5003, 40
5002, 34
5002, 23
5002, 33
5004, 35
5001, 41
5002, 29
5002, 7
5001, 48
5001, 21
5003, 22
5000, 13
5002, 4
5001, 46
5001, 2
5002, 7
5000, 25
5004, 41
5002, 1
5002, 11
5002, 8
5003, 8
5003, 27
5002, 18
5004, 37
5001, 47
5003, 4
5003, 47
5000, 18
5002, 17
5004, 11
